(declare-const delta___cost Int)
(declare-const delta_i Int)
(assert (exists
         ((|i'?1| Int) (|__cost'?2| Int) (phi_i?3 Int) (dir?4 Int) (i?5 Int)
            (n?6 Int) (__cost?7 Int))
         (and (<= (- i?5) 0) (< (- n?6) 0) (< (- i?5) 0)
                (< (+ (- n?6) i?5) 0) (<= (- __cost?7) 0)
                (<= (+ (- __cost?7) -1) 0)
                (or (and (= (+ dir?4 -1) 0) (= (+ (- phi_i?3) i?5 1) 0))
                      (and (or (< (+ dir?4 -1) 0) (< 0 (+ dir?4 -1)))
                             (= (+ (- phi_i?3) i?5 -1) 0)))
                (= (+ |i'?1| (- phi_i?3)) 0)
                (= (+ |__cost'?2| (- __cost?7) -1) 0)
                (= delta___cost (+ |__cost'?2| (- __cost?7)))
                (= delta_i (+ |i'?1| (- i?5))))))
(check-sat)
